proyfinal/src/viki/013/experimentInOfficeAgust.take6.output/b52ed8e3-06f9-41f7-a45f-097554b01dca.als.out
Reading from standard input... Use '--help' for help.
============================[ Problem Statistics ]=============================
|                                                                             |
|  Number of variables:         87638                                         |
|  Number of clauses:          161767                                         |
|  Parse time:                   0.03 s                                       |
|                                                                             |
============================[ Search Statistics ]==============================
| Conflicts |          ORIGINAL         |          LEARNT          | Progress |
|           |    Vars  Clauses Literals |    Limit  Clauses Lit/Cl |          |
===============================================================================
|       100 |   62146   104427   260865 |    38289      100     54 | 29.088 % |
|       250 |   62146   104427   260865 |    42118      250     98 | 29.088 % |
|       475 |   62146   104427   260865 |    46330      475     78 | 29.088 % |
|       812 |   62127   104351   260684 |    50963      508     62 | 29.110 % |
|      1318 |   62107   104273   260494 |    56060      820     86 | 29.132 % |
|      2077 |   43658    50323   128267 |    61666     1353     61 | 50.184 % |
|      3216 |   43000    47946   121863 |    67832     1818     50 | 50.935 % |
===============================================================================
restarts              : 18
conflicts             : 3455           (8331 /sec)
decisions             : 13227          (0.00 % random) (31892 /sec)
propagations          : 5186027        (12504345 /sec)
conflict literals     : 180841         (43.75 % deleted)
Memory used           : 24.71 MB
CPU time              : 0.414738 s

UNSATISFIABLE
